p cnf 57 251
c p weight 26 0 0
c p weight -26 1 0
c p weight 27 1 0
c p weight -27 1 0
c p weight 54 -1 0
c p weight -54 1 0
c p weight 57 0.5 0
57 0
-21 0
-19 0
-17 0
-15 0
-13 0
-11 0
-9 0
-7 0
-5 0
-3 0
-1 0
22 -21 19 0
22 -21 20 0
-22 21 19 0
-22 21 20 0
22 21 -19 -20 0
-22 -21 -19 -20 0
23 19 -20 0
23 -19 20 0
-23 19 20 0
-23 -19 -20 0
24 25 -22 0
24 -22 23 0
-24 25 22 0
-24 22 23 0
24 -22 -19 0
-24 22 -19 0
24 -25 22 19 -23 0
-24 -25 -22 19 -23 0
25 -19 23 0
-25 19 23 0
-26 23 0
25 -26 -19 0
-25 -26 19 0
25 26 19 -23 0
-25 26 -19 -23 0
-27 23 0
25 -27 19 0
-25 -27 -19 0
25 27 -19 -23 0
-25 27 19 -23 0
28 -24 25 0
28 -24 23 0
-28 24 25 0
-28 24 23 0
28 24 -25 -23 0
-28 -24 -25 -23 0
29 25 -23 0
29 -25 23 0
-29 25 23 0
-29 -25 -23 0
30 -28 25 0
30 -28 18 0
-30 28 25 0
-30 28 18 0
30 -28 17 -29 0
30 -28 -17 29 0
-30 28 17 -29 0
-30 28 -17 29 0
30 28 -25 17 29 -18 0
30 28 -25 -17 -29 -18 0
-30 -28 -25 17 29 -18 0
-30 -28 -25 -17 -29 -18 0
32 25 -17 0
32 -25 17 0
-32 25 17 0
-32 -25 -17 0
31 29 -18 0
31 -29 18 0
-31 29 18 0
-31 -29 -18 0
33 -30 32 0
33 -30 16 0
-33 30 32 0
-33 30 16 0
33 -30 15 -18 0
33 -30 -15 18 0
-33 30 15 -18 0
-33 30 -15 18 0
33 30 -32 15 18 -16 0
33 30 -32 -15 -18 -16 0
-33 -30 -32 15 18 -16 0
-33 -30 -32 -15 -18 -16 0
35 32 -15 0
35 -32 15 0
-35 32 15 0
-35 -32 -15 0
34 18 -16 0
34 -18 16 0
-34 18 16 0
-34 -18 -16 0
36 -33 35 0
36 -33 14 0
-36 33 35 0
-36 33 14 0
36 -33 13 -16 0
36 -33 -13 16 0
-36 33 13 -16 0
-36 33 -13 16 0
36 33 -35 13 16 -14 0
36 33 -35 -13 -16 -14 0
-36 -33 -35 13 16 -14 0
-36 -33 -35 -13 -16 -14 0
38 35 -13 0
38 -35 13 0
-38 35 13 0
-38 -35 -13 0
37 16 -14 0
37 -16 14 0
-37 16 14 0
-37 -16 -14 0
39 -36 38 0
39 -36 12 0
-39 36 38 0
-39 36 12 0
39 -36 11 -14 0
39 -36 -11 14 0
-39 36 11 -14 0
-39 36 -11 14 0
39 36 -38 11 14 -12 0
39 36 -38 -11 -14 -12 0
-39 -36 -38 11 14 -12 0
-39 -36 -38 -11 -14 -12 0
41 38 -11 0
41 -38 11 0
-41 38 11 0
-41 -38 -11 0
40 14 -12 0
40 -14 12 0
-40 14 12 0
-40 -14 -12 0
42 -39 41 0
42 -39 10 0
-42 39 41 0
-42 39 10 0
42 -39 9 -12 0
42 -39 -9 12 0
-42 39 9 -12 0
-42 39 -9 12 0
42 39 -41 9 12 -10 0
42 39 -41 -9 -12 -10 0
-42 -39 -41 9 12 -10 0
-42 -39 -41 -9 -12 -10 0
44 41 -9 0
44 -41 9 0
-44 41 9 0
-44 -41 -9 0
43 12 -10 0
43 -12 10 0
-43 12 10 0
-43 -12 -10 0
45 -42 44 0
45 -42 8 0
-45 42 44 0
-45 42 8 0
45 -42 7 -10 0
45 -42 -7 10 0
-45 42 7 -10 0
-45 42 -7 10 0
45 42 -44 7 10 -8 0
45 42 -44 -7 -10 -8 0
-45 -42 -44 7 10 -8 0
-45 -42 -44 -7 -10 -8 0
47 44 -7 0
47 -44 7 0
-47 44 7 0
-47 -44 -7 0
46 10 -8 0
46 -10 8 0
-46 10 8 0
-46 -10 -8 0
48 -45 47 0
48 -45 6 0
-48 45 47 0
-48 45 6 0
48 -45 5 -8 0
48 -45 -5 8 0
-48 45 5 -8 0
-48 45 -5 8 0
48 45 -47 5 8 -6 0
48 45 -47 -5 -8 -6 0
-48 -45 -47 5 8 -6 0
-48 -45 -47 -5 -8 -6 0
50 47 -5 0
50 -47 5 0
-50 47 5 0
-50 -47 -5 0
49 8 -6 0
49 -8 6 0
-49 8 6 0
-49 -8 -6 0
51 -48 50 0
51 -48 4 0
-51 48 50 0
-51 48 4 0
51 -48 3 -6 0
51 -48 -3 6 0
-51 48 3 -6 0
-51 48 -3 6 0
51 48 -50 3 6 -4 0
51 48 -50 -3 -6 -4 0
-51 -48 -50 3 6 -4 0
-51 -48 -50 -3 -6 -4 0
53 50 -3 0
53 -50 3 0
-53 50 3 0
-53 -50 -3 0
52 6 -4 0
52 -6 4 0
-52 6 4 0
-52 -6 -4 0
54 -51 53 0
54 -51 2 0
-54 51 53 0
-54 51 2 0
54 -51 1 -4 0
54 -51 -1 4 0
-54 51 1 -4 0
-54 51 -1 4 0
54 51 -53 1 4 -2 0
54 51 -53 -1 -4 -2 0
-54 -51 -53 1 4 -2 0
-54 -51 -53 -1 -4 -2 0
56 53 -1 0
56 -53 1 0
-56 53 1 0
-56 -53 -1 0
55 4 -2 0
55 -4 2 0
-55 4 2 0
-55 -4 -2 0
-56 0
-53 0
-55 0
-50 0
-52 0
-47 0
-49 0
-44 0
-46 0
-41 0
-43 0
-38 0
-40 0
-35 0
-37 0
-32 0
-34 0
-25 0
-31 0
